\* LP *\
Minimize
OBJ: 3.65898345201 f - 6.28318530718 k_0 - 3.91239492913 k_1
 - 2.32288008395 k_2 - 1.6109550478 k_3 - 1.2259742549 k_4 + 2.4438861616 p
Subject To
Bounds
f <= 5
0 <= k_0
0 <= k_1
0 <= k_2
0 <= k_3
0 <= k_4
p <= 6.28318530718
Generals
k_0
k_1
k_2
k_3
k_4
End
